(declare-fun var0 () String)
(assert (RegexIn var0 (RegexConcat (RegexPlus (RegexPlus (Str2Reg "0"))) (RegexConcat (RegexUnion (RegexPlus (Str2Reg "|||")) (RegexUnion (Str2Reg "}") (Str2Reg "~"))) (RegexConcat (RegexStar (RegexStar (Str2Reg "{{{"))) (RegexConcat (RegexPlus (RegexStar (Str2Reg "``"))) (RegexConcat (RegexPlus (RegexStar (Str2Reg "_"))) (RegexConcat (RegexStar (RegexPlus (Str2Reg "^"))) (RegexConcat (RegexStar (RegexUnion (Str2Reg "\\\\\\") (Str2Reg "]]"))) (RegexConcat (RegexUnion (RegexStar (Str2Reg "@")) (RegexStar (Str2Reg "[["))) (RegexConcat (RegexUnion (RegexUnion (Str2Reg "<") (Str2Reg "=")) (RegexUnion (Str2Reg ">>") (Str2Reg "???"))) (RegexConcat (RegexUnion (RegexPlus (Str2Reg "::")) (RegexStar (Str2Reg ";"))) (RegexConcat (RegexPlus (RegexUnion (Str2Reg "...") (Str2Reg "//"))) (RegexConcat (RegexPlus (RegexUnion (Str2Reg ",,,") (Str2Reg "-"))) (RegexConcat (RegexUnion (RegexPlus (Str2Reg "**")) (RegexStar (Str2Reg "+++"))) (RegexConcat (RegexStar (RegexStar (Str2Reg "))"))) (RegexConcat (RegexStar (RegexStar (Str2Reg "((("))) (RegexConcat (RegexStar (RegexUnion (Str2Reg "&") (Str2Reg "'''"))) (RegexConcat (RegexUnion (RegexUnion (Str2Reg "##") (Str2Reg "$$")) (RegexStar (Str2Reg "%"))) (RegexConcat (RegexPlus (RegexUnion (Str2Reg "!!") (Str2Reg "\""))) (RegexConcat (RegexStar (RegexUnion (Str2Reg "YY") (Str2Reg "ZZZ"))) (RegexConcat (RegexStar (RegexStar (Str2Reg "X"))) (RegexConcat (RegexPlus (RegexUnion (Str2Reg "VV") (Str2Reg "WWW"))) (RegexConcat (RegexUnion (RegexPlus (Str2Reg "TT")) (RegexStar (Str2Reg "UUU"))) (RegexConcat (RegexPlus (RegexStar (Str2Reg "SS"))) (RegexConcat (RegexPlus (RegexStar (Str2Reg "RRR"))) (RegexConcat (RegexStar (RegexPlus (Str2Reg "QQQ"))) (RegexConcat (RegexPlus (RegexStar (Str2Reg "P"))) (RegexConcat (RegexUnion (RegexUnion (Str2Reg "MMM") (Str2Reg "NNN")) (RegexPlus (Str2Reg "OO"))) (RegexConcat (RegexPlus (RegexPlus (Str2Reg "L"))) (RegexConcat (RegexStar (RegexStar (Str2Reg "K"))) (RegexConcat (RegexStar (RegexUnion (Str2Reg "I") (Str2Reg "J"))) (RegexConcat (RegexUnion (RegexStar (Str2Reg "F")) (RegexUnion (Str2Reg "GG") (Str2Reg "HHH"))) (RegexConcat (RegexStar (RegexUnion (Str2Reg "D") (Str2Reg "EE"))) (RegexConcat (RegexPlus (RegexPlus (Str2Reg "C"))) (RegexConcat (RegexPlus (RegexPlus (Str2Reg "BBB"))) (RegexConcat (RegexUnion (RegexUnion (Str2Reg "y") (Str2Reg "zz")) (RegexStar (Str2Reg "AAA"))) (RegexConcat (RegexUnion (RegexUnion (Str2Reg "vv") (Str2Reg "www")) (RegexPlus (Str2Reg "xxx"))) (RegexConcat (RegexStar (RegexUnion (Str2Reg "ttt") (Str2Reg "uuu"))) (RegexConcat (RegexUnion (RegexUnion (Str2Reg "p") (Str2Reg "q")) (RegexUnion (Str2Reg "rrr") (Str2Reg "sss"))) (RegexConcat (RegexStar (RegexUnion (Str2Reg "nn") (Str2Reg "o"))) (RegexConcat (RegexPlus (RegexUnion (Str2Reg "lll") (Str2Reg "mmm"))) (RegexConcat (RegexUnion (RegexPlus (Str2Reg "j")) (RegexStar (Str2Reg "kkk"))) (RegexConcat (RegexPlus (RegexStar (Str2Reg "ii"))) (RegexConcat (RegexPlus (RegexStar (Str2Reg "hhh"))) (RegexConcat (RegexStar (RegexUnion (Str2Reg "ff") (Str2Reg "ggg"))) (RegexConcat (RegexStar (RegexUnion (Str2Reg "d") (Str2Reg "ee"))) (RegexConcat (RegexStar (RegexStar (Str2Reg "c"))) (RegexConcat (RegexUnion (RegexPlus (Str2Reg "9")) (RegexUnion (Str2Reg "aa") (Str2Reg "b"))) (RegexConcat (RegexStar (RegexUnion (Str2Reg "777") (Str2Reg "8"))) (RegexConcat (RegexPlus (RegexUnion (Str2Reg "5") (Str2Reg "66"))) (RegexConcat (RegexStar (RegexStar (Str2Reg "444"))) (RegexUnion (RegexUnion (Str2Reg "0") (Str2Reg "1")) (RegexUnion (Str2Reg "22") (Str2Reg "3")))))))))))))))))))))))))))))))))))))))))))))))))))))))
(assert (not (RegexIn var0 (RegexConcat (RegexStar (RegexPlus (Str2Reg ">"))) (RegexConcat (RegexPlus (RegexPlus (Str2Reg "=="))) (RegexConcat (RegexPlus (RegexStar (Str2Reg "<"))) (RegexConcat (RegexPlus (RegexUnion (Str2Reg ":::") (Str2Reg ";"))) (RegexConcat (RegexUnion (RegexStar (Str2Reg "-")) (RegexUnion (Str2Reg "...") (Str2Reg "///"))) (RegexConcat (RegexPlus (RegexStar (Str2Reg ","))) (RegexConcat (RegexPlus (RegexUnion (Str2Reg "***") (Str2Reg "+++"))) (RegexConcat (RegexStar (RegexPlus (Str2Reg ")"))) (RegexConcat (RegexStar (RegexPlus (Str2Reg "((("))) (RegexConcat (RegexUnion (RegexPlus (Str2Reg "&")) (RegexStar (Str2Reg "''"))) (RegexConcat (RegexStar (RegexStar (Str2Reg "%%%"))) (RegexConcat (RegexUnion (RegexUnion (Str2Reg "\"") (Str2Reg "#")) (RegexStar (Str2Reg "$$"))) (RegexConcat (RegexPlus (RegexPlus (Str2Reg "!!!"))) (RegexConcat (RegexUnion (RegexUnion (Str2Reg "X") (Str2Reg "YYY")) (RegexPlus (Str2Reg "ZZZ"))) (RegexConcat (RegexStar (RegexUnion (Str2Reg "VVV") (Str2Reg "WW"))) (RegexConcat (RegexStar (RegexStar (Str2Reg "UU"))) (RegexConcat (RegexUnion (RegexPlus (Str2Reg "R")) (RegexUnion (Str2Reg "SS") (Str2Reg "TTT"))) (RegexConcat (RegexPlus (RegexPlus (Str2Reg "QQQ"))) (RegexConcat (RegexPlus (RegexUnion (Str2Reg "O") (Str2Reg "PP"))) (RegexConcat (RegexPlus (RegexUnion (Str2Reg "MM") (Str2Reg "N"))) (RegexConcat (RegexStar (RegexStar (Str2Reg "L"))) (RegexConcat (RegexUnion (RegexPlus (Str2Reg "JJ")) (RegexStar (Str2Reg "KK"))) (RegexConcat (RegexUnion (RegexStar (Str2Reg "HH")) (RegexStar (Str2Reg "I"))) (RegexConcat (RegexStar (RegexUnion (Str2Reg "FFF") (Str2Reg "G"))) (RegexConcat (RegexStar (RegexPlus (Str2Reg "EE"))) (RegexConcat (RegexStar (RegexPlus (Str2Reg "DD"))) (RegexConcat (RegexPlus (RegexStar (Str2Reg "CC"))) (RegexConcat (RegexStar (RegexStar (Str2Reg "BBB"))) (RegexConcat (RegexPlus (RegexPlus (Str2Reg "AA"))) (RegexConcat (RegexPlus (RegexPlus (Str2Reg "zzz"))) (RegexConcat (RegexUnion (RegexStar (Str2Reg "x")) (RegexPlus (Str2Reg "y"))) (RegexConcat (RegexStar (RegexStar (Str2Reg "www"))) (RegexConcat (RegexPlus (RegexUnion (Str2Reg "uuu") (Str2Reg "vvv"))) (RegexConcat (RegexPlus (RegexStar (Str2Reg "tt"))) (RegexConcat (RegexUnion (RegexUnion (Str2Reg "q") (Str2Reg "r")) (RegexStar (Str2Reg "ss"))) (RegexConcat (RegexPlus (RegexStar (Str2Reg "p"))) (RegexConcat (RegexStar (RegexPlus (Str2Reg "o"))) (RegexConcat (RegexUnion (RegexUnion (Str2Reg "l") (Str2Reg "mmm")) (RegexPlus (Str2Reg "nnn"))) (RegexConcat (RegexStar (RegexStar (Str2Reg "kkk"))) (RegexConcat (RegexStar (RegexPlus (Str2Reg "jj"))) (RegexConcat (RegexPlus (RegexUnion (Str2Reg "h") (Str2Reg "iii"))) (RegexConcat (RegexStar (RegexUnion (Str2Reg "fff") (Str2Reg "gg"))) (RegexConcat (RegexStar (RegexUnion (Str2Reg "dd") (Str2Reg "eee"))) (RegexConcat (RegexStar (RegexStar (Str2Reg "cc"))) (RegexConcat (RegexStar (RegexStar (Str2Reg "bb"))) (RegexConcat (RegexUnion (RegexUnion (Str2Reg "888") (Str2Reg "99")) (RegexStar (Str2Reg "aa"))) (RegexConcat (RegexStar (RegexPlus (Str2Reg "777"))) (RegexConcat (RegexPlus (RegexUnion (Str2Reg "55") (Str2Reg "6"))) (RegexConcat (RegexPlus (RegexUnion (Str2Reg "33") (Str2Reg "444"))) (RegexConcat (RegexPlus (RegexPlus (Str2Reg "222"))) (RegexPlus (RegexUnion (Str2Reg "0") (Str2Reg "11"))))))))))))))))))))))))))))))))))))))))))))))))))))))))
(check-sat)